%pal nprocs 1 END
%MaxCore 3000

!BP86 D3BJ DEF2-SVP TightSCF
!OPT

* xyz 0 1 
C         -5.39620        2.23750       -0.00500
C         -4.32710        3.33400       -0.00120
H         -6.39390        2.72630        0.00270
H         -5.36040        1.61530        0.90930
H         -5.36780        1.62940       -0.92910
C         -2.80350        3.09610       -0.00900
H         -4.53830        3.95120        0.90000
H         -4.54560        3.96370       -0.89190
O         -2.19120        4.15040       -0.00530
N         -2.10530        1.88270       -0.01930
C         -2.87420        0.62430       -0.02230
C         -2.31470       -0.81200       -0.03170
H         -3.49740        0.64060       -0.93480
H         -3.48630        0.63240        0.89800
N         -3.28290       -1.77070       -0.02320
C         -3.00620       -3.09690       -0.02850
C         -4.04910       -4.03070       -0.01820
C         -3.76290       -5.39900       -0.02350
C         -2.43570       -5.83770       -0.03920
C         -1.38900       -4.91010       -0.04960
C         -1.67050       -3.53060       -0.04420
C         -0.66670       -2.55290       -0.05370
N         -1.00270       -1.21800       -0.04720
O          0.51040       -2.87730       -0.06780
C         -0.63110        1.81500       -0.02480
C          0.20250        3.11900       -0.01290
H         -0.33330        1.29520       -0.96030
H         -0.32790        1.27610        0.89810
C          1.70980        2.93130       -0.01570
H         -0.04200        3.69260        0.90790
H         -0.04310        3.71160       -0.92120
C          2.34380        1.66980       -0.03040
C          3.73920        1.57750       -0.03170
C          4.52110        2.73500       -0.01850
Cl         6.27100        2.61390       -0.02000
C          3.90640        3.98910       -0.00390
C          2.51210        4.08640       -0.00270
H         -0.19480       -0.58070       -0.05570
H         -5.08000       -3.69890       -0.00600
H         -4.57020       -6.11990       -0.01530
H         -2.21790       -6.89790       -0.04330
H         -0.36800       -5.27140       -0.06170
H          1.78010        0.74990       -0.04090
H          4.21160        0.60330       -0.04300
H          2.05420        5.06820        0.00880
H          4.50700        4.88970        0.00640
*